StudentsNr = 10;
InstructorsNr = 14;
DaysNr = 2;
SlotsPerDay = 60;
AvailabilitySlotsLenght = 20;
RoomNr = 1;
ProgrammNr = 1;
DegreeNr = 3;
RolesNr = 3;
CoursesNr = 3;
InstructorsProgramm = [{1}, {1}, {1}, {1}, {1}, {1}, {1}, {1}, {1}, {1}, {1}, {1}, {1}, {1}];
InstructorRolesPerProgramm = [|{6, 7, 8, 11, 14}, {1, 3, 4, 6, 9, 10}, {1, 11, 12, 13, 14}|];
InstructorsAvailability = [|1, 1, 1, 1, 1, 1, |1, 1, 1, 1, 0, 0, |0, 1, 1, 1, 1, 1, |0, 0, 1, 1, 1, 1, |1, 1, 1, 1, 1, 1, |0, 0, 0, 1, 1, 1, |0, 1, 1, 0, 0, 0, |0, 1, 0, 0, 1, 1, |1, 1, 1, 1, 1, 1, |1, 1, 1, 1, 1, 1, |0, 1, 1, 1, 1, 1, |1, 1, 1, 0, 1, 1, |1, 1, 1, 1, 1, 1, |1, 1, 0, 1, 1, 1|];
StudentsProgramm = [1, 1, 1, 1, 1, 1, 1, 1, 1, 1];
StudentsDegree = [3, 2, 3, 3, 3, 1, 2, 2, 1, 1];
StudentsSupervisorId = [2, 3, 12, 8, 10, 2, 2, 1, 7, 13];
StudentsCourseIds = [{3}, {2}, {3}, {1}, {3}, {}, {1}, {1}, {}, {}];
StudentsAvailability = [|0, 0, 0, 1, 1, 1, |0, 1, 1, 1, 1, 1, |0, 1, 0, 0, 1, 1, |0, 0, 0, 0, 0, 0, |0, 0, 1, 1, 1, 1, |1, 1, 1, 1, 1, 1, |0, 0, 0, 0, 1, 1, |1, 0, 0, 0, 1, 1, |1, 1, 1, 1, 1, 1, |0, 0, 0, 0, 1, 1|];
TheoryticalMinCard = [1, 0, 0, 0, 0, 1, 1, 0, 0, 0];
CoursesInstructorIds = [{3, 5, 6, 7, 8, 9, 10, 12, 13, 14}, {3}, {4}];
RolesDemands = [1, 4, 4];
RolesContinuity = [1];
ExamLen = [2, 1, 2, 2, 2, 2, 1, 1, 2, 2];
LunchTsMinLen = 0;
LunchStarts = [29..39, 84..91];
SupervisorAvailable = 5;
OptimalLunchLenght = [2, 1];
OptimalStartTs = [0, 0];
OptimalFinishTs = [2, 60];
MinimizeRooms = 100;
RolesSoftContinuity = [|1, 2, 3|0, 0, 0|];
SameDegreeInRoom = 10;
Mergeability = 1;
